(set-logic QF_S)
(declare-fun _var_0xINPUT_140054_() String)
(declare-fun __woorpje_diseq_pref0_() String)
(declare-fun __woorpje_diseq_suf_l0_() String)
(declare-fun __woorpje_diseq_suf_r0_() String)
(declare-fun __woorpje_diseq_pref1_() String)
(declare-fun __woorpje_diseq_suf_l1_() String)
(declare-fun __woorpje_diseq_suf_r1_() String)
(assert (=(str.++  "2vbcJ9lN6J" "")(str.++ __woorpje_diseq_pref0_  "l" __woorpje_diseq_suf_l0_  "")) )
(assert (=(str.++ _var_0xINPUT_140054_  "")(str.++ __woorpje_diseq_pref0_  "6" __woorpje_diseq_suf_r0_  "")) )
(assert  (<= (* (str.len _var_0xINPUT_140054_)(- 1)) (- 1)) )
(check-sat)
